c --- [ banner ] -------------------------------------------------------------
c 
c CaDiCaL Radically Simplified CDCL SAT Solver
c Copyright (c) 2016-2021 A. Biere, M. Fleury, N. Froleyks
c 
c Version 1.5.2 a5f15211db36c3956764e18194dd5bd63bf3b5e6
c g++ (GCC) 9.3.0 -Wall -Wextra -O3 -DNDEBUG
c Fri Oct 21 01:27:37 EDT 2022 Linux gra-login3 3.10.0-1160.66.1.el7.x86_64 x86_64
c 
c --- [ limit ] --------------------------------------------------------------
c 
c setting conflict limit to 200000 conflicts (due to '200000')
c 
c --- [ parsing input ] ------------------------------------------------------
c 
c reading DIMACS file from '33.cubes4062.adj'
c opening file to read '33.cubes4062.adj'
c found 'p cnf 6160 1595479' header
c parsed 1595479 clauses in 19.64 seconds process time
c closing file '33.cubes4062.adj'
c after reading 1457566806 bytes 1390.0 MB
c 
c --- [ options ] ------------------------------------------------------------
c 
c all options are set to their default value
c 
c --- [ solving ] ------------------------------------------------------------
c 
c time measured in process time since initialization
c 
c  seconds    reductions  redundant   irredundant
c          MB     restarts       trail       variables
c            level   conflicts       glue         remaining
c 
c * 19.64 1385  0 0   0    0    0  0% 0 1595422 2306 37%
c { 20.76 1438  0 0   0    0    0  0% 0 1595422 2306 37%
c i 23.96 1512 271 0  13   88   73 30% 18 1595422 2298 37%
c i 25.95 1527 179 0  32  177  142 28% 28 1595422 2297 37%
c i 26.62 1531 161 0  42  217  177 28% 32 1595422 2296 37%
c - 31.41 1509 123 1  45  300  215 26% 27 379081 2296 37%
c i 31.99 1458 82 1  49  497  279 24% 21 379081 2295 37%
c i 32.49 1460 77 1  59  574  353 25% 22 379081 2294 37%
c i 32.60 1460 75 1  59  599  372 25% 22 379081 2293 37%
c i 32.68 1460 76 1  61  615  385 25% 22 379081 2292 37%
c i 32.69 1460 76 1  62  620  388 25% 23 379081 2291 37%
c i 32.69 1460 75 1  63  621  388 25% 23 379081 2290 37%
c i 34.06 1463 72 1  93  774  506 25% 23 379081 2288 37%
c i 34.28 1463 71 1  94  812  538 26% 23 379081 2287 37%
c i 34.50 1463 70 1  94  870  593 26% 23 379081 2286 37%
c i 34.50 1463 69 1  94  874  596 26% 23 379081 2285 37%
c } 35.22 1464 68 1 114 1000  703 26% 25 379081 2285 37%
c [ 35.22 1464  0 1 114 1000  703  0% 0 379081 2285 37%
c O 35.25 1464 44 1 114 1003  705 25% 10 379081 2285 37%
c i 35.80 1465 20 1 114 1117  777 28% 12 379081 2284 37%
c 
c  seconds    reductions  redundant   irredundant
c          MB     restarts       trail       variables
c            level   conflicts       glue         remaining
c 
c - 36.63 1632 25 2 114 1247  801 30% 19 379045 2284 37%
c i 36.73 1632 26 2 114 1280  828 31% 20 379045 2283 37%
c i 37.12 1632 26 2 114 1939 1344 32% 22 379045 2282 37%
c - 37.88 1631 26 3 115 2669 1438 32% 22 379039 2282 37%
c ] 38.35 1555 26 3 115 3000 1704 53% 22 379039 2282 37%
c { 38.35 1555 68 3 115 3000 1704 71% 25 379039 2282 37%
c F 38.37 1555 68 3 117 3005 1709 71% 25 379039 2282 37%
c i 39.02 1555 69 3 140 3090 1780 68% 25 379039 2281 37%
c i 39.62 1555 69 3 170 3219 1900 66% 26 379039 2280 37%
c i 40.41 1555 69 3 198 3459 2084 62% 27 379039 2279 37%
c i 40.59 1555 69 3 204 3508 2125 62% 28 379039 2278 37%
c - 41.76 1554 52 4 236 4564 2045 57% 25 379027 2278 37%
c p 44.97 1554 49 4 240 5000 5678 56% 24 379015 2210 36%
c d 45.53 1554 49 4 240 5000 5626 56% 24 327139 2209 36%
c # 46.22 1554 42 4 240 6006 6277 55% 22 327139 2209 36%
c - 49.63 1359 46 5 388 6933 2896 53% 24 327139 2209 36%
c } 50.20 1359 45 5 400 7001 2956 53% 24 327139 2209 36%
c [ 50.20 1359 26 5 400 7001 2956 53% 22 327139 2209 36%
c - 56.31 1359 26 6 402 9660 3139 49% 22 327139 2209 36%
c I 56.75 1359 27 6 402 10008 3386 49% 23 327139 2209 36%
c 
c  seconds    reductions   redundant   irredundant
c          MB     restarts        trail       variables
c            level    conflicts       glue         remaining
c 
c - 58.84 1360 38 7 404 12843 4003 50% 30 327139 2209 36%
c ] 60.41 1360 41 7 405 15003 5696 50% 32 327139 2209 36%
c { 60.41 1360 45 7 405 15003 5696 53% 24 327139 2209 36%
c 3 60.44 1360 45 7 405 15003 6552 53% 24 327139 2209 36%
c 2 60.50 1360 45 7 405 15003 6702 53% 24 327139 2209 36%
c p 62.55 1360 45 7 405 15003 9228 53% 24 327139 2209 36%
c B 62.76 1360 45 7 405 15010 9235 53% 24 327139 2209 36%
c - 67.67 1360 44 8 529 16478 4897 52% 24 327139 2209 36%
c } 73.47 1360 42 8 718 18770 6651 51% 25 327139 2209 36%
c 1 73.47 1360 42 8 718 18770 6651 51% 25 327139 2209 36%
c 
c --- [ writing output ] -----------------------------------------------------
c 
c writing simplified CNF to DIMACS file 'simp/33.cubes4062.adj.simp1'
c * 73.47 1360 42 8 718 18770 6651 51% 25 327139 2209 36%
c opening file to write 'simp/33.cubes4062.adj.simp1'
c writing 'p cnf 6160 327139' header
c closing file 'simp/33.cubes4062.adj.simp1'
c after writing 151300688 bytes 144.3 MB
c wrote 327139 clauses in 1.12 seconds process time
c 
c --- [ writing extension ] --------------------------------------------------
c 
c writing extension stack to 'simp/33.cubes4062.adj.ext1'
c opening file to write 'simp/33.cubes4062.adj.ext1'
c closing file 'simp/33.cubes4062.adj.ext1'
c after writing 12189 bytes 0.0 MB
c wrote 814 witnesses in 0.00 seconds process time
c 
c --- [ result ] -------------------------------------------------------------
c 
s SATISFIABLE
c 
c --- [ run-time profiling ] -------------------------------------------------
c 
c process time taken by individual solving procedures
c (percentage relative to process time for solving)
c 
c        48.31   89.74% search
c        33.84   62.87% unstable
c        19.64   36.48% parse
c        13.34   24.78% stable
c         5.52   10.26% simplify
c         4.22    7.83% probe
c         1.12    2.09% lucky
c         0.09    0.17% ternary
c   =================================
c        53.83   72.17% solve
c 
c last line shows process time for solving
c (percentage relative to total process time)
c 
c --- [ statistics ] ---------------------------------------------------------
c 
c chronological:              3824        20.37 %  of conflicts
c conflicts:                 18770       348.70    per second
c decisions:                 72532      1347.47    per second
c fixed:                       800        12.99 %  of all variables
c learned:                   18318        97.59 %  per conflict
c learned_lits:            3383790       100.00 %  learned literals
c minimized:                     0         0.00 %  learned literals
c shrunken:                1752457        51.79 %  learned literals
c minishrunken:             401885        11.88 %  learned literals
c propagations:            2776392         0.05 M  per second
c reduced:                    7484        39.87 %  per conflict
c rephased:                      5      3754.00    interval
c restarts:                    718        26.14    interval
c stabilizing:                   2        53.29 %  of conflicts
c substituted:                   7         0.11 %  of all variables
c subsumed:                   4363         0.13 %  of all clauses
c ternary:                    1896         0.57 %  of resolved
c weakened:                     14         2.00    average size
c 
c seconds are measured in process time for solving
c 
c --- [ resources ] ----------------------------------------------------------
c 
c total process time since initialization:        74.59    seconds
c total real time since initialization:           75.74    seconds
c maximum resident set size of process:         1797.08    MB
c 
c --- [ shutting down ] ------------------------------------------------------
c 
c exit 10
WARNING! DIMACS header mismatch: wrong number of variables.
============================[ Problem Statistics ]=============================
|                                                                             |
|  Number of variables:          6120                                         |
|  Number of clauses:          327139                                         |
|  Parse time:                   2.11 s                                       |
|  Simplification time:          0.06 s                                       |
|                                                                             |
============================[ Search Statistics ]====================================================
| Conflicts |          ORIGINAL         |          LEARNT          | Num Sols |      SUBGRAPHS      |
|           |    Vars  Clauses Literals |    Limit  Clauses Lit/Cl |          | Canonical Noncanon. |
=====================================================================================================
|       116 |    6027   327155 33065045 |     2000      116    120 |        0 |        27        16 |
|       267 |    6027   327156 33065063 |     2000      267    121 |        0 |        35        17 |
|       495 |    6027   327159 33065196 |     2000      495    130 |        0 |        44        20 |
|       844 |    6027   327171 33065469 |     2000      844    115 |        0 |        68        32 |
|      1386 |    6027   327207 33066123 |     2000     1386    112 |        0 |        80        68 |
|      2207 |    6027   327269 33067854 |     3601     1208     72 |        0 |       106       130 |
|      3461 |    6027   327384 33070202 |     3601     2462     90 |        0 |       133       245 |
|      5463 |    6027   327678 33075500 |     5001     2664     58 |        0 |       246       539 |
|     10738 |    6027   330391 33134167 |     6300     5438     25 |        0 |      1147      3252 |
|     16491 |    6027   332300 33179409 |     8785     4276     28 |        0 |      1765      5161 |
|     22490 |    6027   332533 33184401 |     9996     5886     44 |        0 |      1875      5394 |
|     31345 |    6027   332739 33189042 |    11204     9749     67 |        0 |      2017      5600 |
|     46780 |    6027   335200 33235641 |    13605    13385     75 |        0 |      2755      8061 |
|     67263 |    6027   336222 33254572 |    17207    11670     45 |        0 |      3085      9083 |
|     98491 |    6027   338258 33290004 |    20814    15305     48 |        0 |      3738     11119 |
|    143153 |    6027   339131 33308564 |    25617    14770     39 |        0 |      4035     11992 |
|    210053 |    6027   340347 33332971 |    30421    26874     70 |        0 |      4455     13208 |
|    309411 |    6027   341179 33351440 |    37608    26019     52 |        0 |      4814     14040 |
|    457792 |    6027   341771 33365278 |    46033    30225     57 |        0 |      5085     14632 |
|    681003 |    6027   343299 33403960 |    55610    52613     74 |        0 |      6289     16160 |
|   1014897 |    6027   344668 33438912 |    68816    47713     61 |        0 |      7091     17529 |
|   1515455 |    6027   346438 33485146 |    84415    54270     58 |        0 |      8256     19299 |
|   2323710 |    6027   406511 34717091 |   104822    63532     52 |        0 |     16975     79372 |
|   3459118 |    6027   419645 34995681 |   127625   100743     62 |        0 |     20660     92506 |
|   5175924 |    6027   453040 35694495 |   156426   120750     65 |        5 |     27544    125896 |
|   7739863 |    6027   491863 36597150 |   191236   173299     71 |        6 |     37767    164718 |
|  11617017 |    6027   581342 38149304 |   234436   230853     73 |        6 |     57931    254197 |
|  17369985 |    6027   652798 39760485 |   287213   259398     74 |        7 |     79327    325652 |
|  26152405 |    6027   912949 44501128 |   353228   252833     53 |        7 |    132303    585803 |
=====================================================================================================
Number of solutions   : 9
Canonical subgraphs   : 166693         (16 /sec)
          order  3    : 1              (111111 /sec)
          order  4    : 1              (333333 /sec)
          order  5    : 1              (166667 /sec)
          order  6    : 1              (38462 /sec)
          order  7    : 1              (5780 /sec)
          order  8    : 2              (1089 /sec)
          order  9    : 7              (354 /sec)
          order 10    : 34             (118 /sec)
          order 11    : 248            (50 /sec)
          order 12    : 1249           (16 /sec)
          order 13    : 6398           (12 /sec)
          order 14    : 42933          (16 /sec)
          order 15    : 105348         (17 /sec)
          order 16    : 7222           (15 /sec)
          order 17    : 2751           (11 /sec)
          order 18    : 391            (10 /sec)
          order 19    : 63             (7 /sec)
          order 20    : 18             (6 /sec)
          order 21    : 15             (6 /sec)
          order 22    : 9              (1 /sec)
Noncanonical subgraphs: 734753         (178 /sec)
          order  3    : 0              (-nan /sec)
          order  4    : 0              (-nan /sec)
          order  5    : 0              (-nan /sec)
          order  6    : 0              (-nan /sec)
          order  7    : 0              (-nan /sec)
          order  8    : 0              (-nan /sec)
          order  9    : 0              (-nan /sec)
          order 10    : 0              (-nan /sec)
          order 11    : 0              (-nan /sec)
          order 12    : 0              (-nan /sec)
          order 13    : 28910          (3172 /sec)
          order 14    : 188397         (1106 /sec)
          order 15    : 129580         (928 /sec)
          order 16    : 381766         (102 /sec)
          order 17    : 4936           (83 /sec)
          order 18    : 995            (81 /sec)
          order 19    : 161            (35 /sec)
          order 20    : 0              (-nan /sec)
          order 21    : 0              (-nan /sec)
Canonicity checking   : 10135.3 s
Noncanonicity checking: 4137.13 s
Total canonicity time : 14272.4 s
database reductions   : 356
restarts              : 53500
conflicts             : 38663766       (1199 /sec)
decisions             : 47991615       (0.00 % random) (1488 /sec)
propagations          : 4178778025     (129539 /sec)
conflict literals     : 4379849897     (56.34 % deleted)
actual reward         : 0.113490
Memory used           : 830.00 MB
CPU time              : 32258.9 s

UNSATISFIABLE
